NAME : random_13
COMMENT : 42 random nodes
TYPE : TSP
DIMENSION : 42
EDGE_WEIGHT_TYPE : EUC_2D
NODE_COORD_SECTION
1 -2836 -4747
2 -4700 -206
3 -3002 -379
4 -4265 7332
5 6104 900
6 -6011 6449
7 -5592 3343
8 3225 -1804
9 582 6229
10 7450 2501
11 653 -4200
12 -5457 2036
13 -4455 -2731
14 -332 5126
15 4243 6908
16 -6168 -2227
17 5035 -5547
18 -1500 3490
19 394 4633
20 2024 -1798
21 -1865 5960
22 2736 5443
23 -1177 2811
24 7273 4881
25 4385 -2860
26 -2069 -5988
27 -3489 2147
28 2215 -1298
29 -3967 -2940
30 853 4142
31 2360 -5985
32 6301 646
33 7222 4303
34 -1525 -87
35 4357 -1617
36 3589 -4143
37 -1511 -5345
38 5591 2934
39 7451 -3606
40 -48 -6240
41 -2469 5902
42 -3885 -3889
EOF